HUN,8,6,399
1,5,2,1,0,25,5,7,3,17,4,2
0,24,1,5,2,2,5,22,4,20,3,25
1,11,2,25,0,20,4,24,3,2,5,9
1,13,0,6,2,25,4,7,5,22,3,17
2,2,1,13,0,6,4,19,5,21,3,7
1,4,2,22,0,25,3,6,5,6,4,23
2,27,0,17,1,4,4,25,5,19,3,20
1,13,2,29,0,15,4,27,3,25,5,12
